Traveling Salesman Problem/TSP_generados/Aleatorio1621103331_10.tsp
NAME: Aleatorio1621103331_10.tsp
COMMENT: Randomly generated scenario
TYPE: TSP
DIMENSION: 10
EDGE_WEIGHT_TYPE: ATT
NODE_COORD_SECTION
1 22.11 26.02
2 15.14 11.16
3 17.52 36.74
4 3.45 48.62
5 31.69 9.68
6 14.61 36.97
7 35.92 16.07
8 28.48 35.84
9 18.35 7.64
10 24.68 42.83
