Traveling Salesman Problem/TSP_generados/Aleatorio1621103331_10.opt.tour
NAME: Aleatorio1621103331_10.opt.tour
COMMENT: Optimal solution for Aleatorio1621103331_10 (124.13395250002337)
TYPE: TOUR
DIMENSION: 10
TOUR_SECTION
1 3 6 4 10 8 7 5 9 2
-1
EOF
